NAME: exemple_phase_2
TYPE: TSP
COMMENT: Application algorithme Kruskal
DIMENSION: 9
EDGE_WEIGHT_TYPE: EXPLICIT
EDGE_WEIGHT_FORMAT: FULL_MATRIX
DISPLAY_DATA_TYPE: TWOD_DISPLAY
EDGE_WEIGHT_SECTION
0 4 0 0 0 0 0 8 0
4 0 8 0 0 0 0 11 0
0 8 0 7 0 4 0 0 2
0 0 7 0 9 14 0 0 0
0 0 0 9 0 10 0 0 0
0 0 4 14 10 0 2 0 0
0 0 0 0 0 2 0 1 6
8 11 0 0 0 0 1 0 7
0 0 2 0 0 0 6 7 0
DISPLAY_DATA_SECTION
   1    250.0  750.0
   2    500.0  1000.0
   3    750.0  1000.0
   4    1000.0  1000.0
   5    1250.0  750.0
   6    1000.0  500.0
   7    750.0   500.0
   8    500.0  500.0
   9    625.0  750.0
EOF
